100 10
26 54
89 100
4 25
38 16
100 71
60 52
69 60
36 61
87 67
37 7
67 60
15 1
27 16
79 62
75 58
21 39
27 56
75 84
51 52
24 1
39 47
10 29
4 1
78 71
77 91
26 54
73 73
30 49
10 5
60 66
66 37
27 46
58 73
82 100
41 34
54 50
74 100
3 17
100 100
14 12
61 72
20 1
22 32
93 89
41 56
48 19
77 100
4 9
88 65
38 11
34 27
58 46
30 51
27 49
89 78
69 98
100 91
60 74
99 70
29 35
51 24
69 63
33 17
41 54
44 15
33 32
35 63
66 89
43 63
10 15
77 53
72 52
47 32
15 44
76 87
71 93
28 23
15 5
1 5
36 24
68 45
95 74
64 91
84 100
36 50
51 32
68 96
86 98
47 57
67 56
47 66
68 81
55 29
46 20
19 40
10 40
90 88
36 7
98 100
89 85
666 757
460 558
366 444
356 426
380 448
596 699
661 746
358 442
476 581
524 616
